benchmarks_vrp/CMT12/fixed_c/CMT12_1.vrp
NAME: CMT12_1
TYPE: CVRP
COMMENT: 819.56 - Cluster Nr.1
DIMENSION: 4
CAPACITY: 200
EDGE_WEIGHT_TYPE: EUC_2D
NODE_COORD_TYPE: TWOD_COORDS
NODE_COORD_SECTION: 
1 40 50
4 65 85
3 65 82
2 67 85
DEPOT_SECTION: 
1
-1
DEMAND_SECTION: 
2 20
4 40
3 10
1 0
EOF
