benchmarks_vrp/CMT12/fixed_c/CMT12_1.tour
NAME: CMT12_1 solution
TYPE: TOUR
TOUR_SECTION:
1 2 4 3 -1
-1
EOF